p cnf 543 965               
-6 61 0
-5 60 0
-4 59 0
-3 58 0
-1 57 0
-2 57 0
1 2 -57 0
-57 58 0
3 57 -58 0
-58 59 0
4 58 -59 0
-59 60 0
5 59 -60 0
-60 61 0
6 60 -61 0
61 188 0
-12 66 0
-11 65 0
-10 64 0
-9 63 0
-7 62 0
-8 62 0
7 8 -62 0
-62 63 0
9 62 -63 0
-63 64 0
10 63 -64 0
-64 65 0
11 64 -65 0
-65 66 0
12 65 -66 0
66 97 0
61 97 0
-66 -61 -97 0
97 -111 0
-61 98 0
-66 98 0
61 66 -98 0
98 99 0
-18 71 0
-17 70 0
-16 69 0
-15 68 0
-13 67 0
-14 67 0
13 14 -67 0
-67 68 0
15 67 -68 0
-68 69 0
16 68 -69 0
-69 70 0
17 69 -70 0
-70 71 0
18 70 -71 0
71 99 0
-98 -71 -99 0
99 -111 0
-71 100 0
-98 100 0
71 98 -100 0
100 101 0
-24 76 0
-23 75 0
-22 74 0
-21 73 0
-19 72 0
-20 72 0
19 20 -72 0
-72 73 0
21 72 -73 0
-73 74 0
22 73 -74 0
-74 75 0
23 74 -75 0
-75 76 0
24 75 -76 0
76 101 0
-100 -76 -101 0
101 -111 0
-76 102 0
-100 102 0
76 100 -102 0
102 103 0
-30 81 0
-29 80 0
-28 79 0
-27 78 0
-25 77 0
-26 77 0
25 26 -77 0
-77 78 0
27 77 -78 0
-78 79 0
28 78 -79 0
-79 80 0
29 79 -80 0
-80 81 0
30 80 -81 0
81 103 0
-102 -81 -103 0
103 -111 0
-81 104 0
-102 104 0
81 102 -104 0
104 105 0
-36 86 0
-35 85 0
-34 84 0
-33 83 0
-31 82 0
-32 82 0
31 32 -82 0
-82 83 0
33 82 -83 0
-83 84 0
34 83 -84 0
-84 85 0
35 84 -85 0
-85 86 0
36 85 -86 0
86 105 0
-104 -86 -105 0
105 -111 0
-86 106 0
-104 106 0
86 104 -106 0
106 107 0
-42 91 0
-41 90 0
-40 89 0
-39 88 0
-37 87 0
-38 87 0
37 38 -87 0
-87 88 0
39 87 -88 0
-88 89 0
40 88 -89 0
-89 90 0
41 89 -90 0
-90 91 0
42 90 -91 0
91 107 0
-106 -91 -107 0
107 -111 0
-91 108 0
-106 108 0
91 106 -108 0
108 109 0
-48 96 0
-47 95 0
-46 94 0
-45 93 0
-43 92 0
-44 92 0
43 44 -92 0
-92 93 0
45 92 -93 0
-93 94 0
46 93 -94 0
-94 95 0
47 94 -95 0
-95 96 0
48 95 -96 0
96 109 0
-108 -96 -109 0
109 -111 0
-96 110 0
-108 110 0
96 108 -110 0
110 -111 0
-97 -99 -101 -103 -105 -107 -109 -110 111 0
-111 -61 180 0
111 -49 180 0
-61 -49 180 0
-180 188 0
66 189 0
-111 -66 181 0
111 -50 181 0
-66 -50 181 0
-181 189 0
71 190 0
-111 -71 182 0
111 -51 182 0
-71 -51 182 0
-182 190 0
76 191 0
-111 -76 183 0
111 -52 183 0
-76 -52 183 0
-183 191 0
81 192 0
-111 -81 184 0
111 -53 184 0
-81 -53 184 0
-184 192 0
86 193 0
-111 -86 185 0
111 -54 185 0
-86 -54 185 0
-185 193 0
91 194 0
-111 -91 186 0
111 -55 186 0
-91 -55 186 0
-186 194 0
96 195 0
-111 -96 187 0
111 -56 187 0
-96 -56 187 0
-187 195 0
-188 -189 -190 -191 -192 -193 -194 -195 196 0
-196 -197 0
111 -197 0
-44 149 0
-38 143 0
-32 137 0
-26 131 0
-20 125 0
-14 119 0
-2 113 0
-8 113 0
2 8 -113 0
-113 119 0
14 113 -119 0
-119 125 0
20 119 -125 0
-125 131 0
26 125 -131 0
-131 137 0
32 131 -137 0
-137 143 0
38 137 -143 0
-143 149 0
44 143 -149 0
-43 148 0
-37 142 0
-31 136 0
-25 130 0
-19 124 0
-13 118 0
-1 112 0
-7 112 0
1 7 -112 0
-112 118 0
13 112 -118 0
-118 124 0
19 118 -124 0
-124 130 0
25 124 -130 0
-130 136 0
31 130 -136 0
-136 142 0
37 136 -142 0
-142 148 0
43 142 -148 0
-149 -148 -154 0
154 -164 0
-148 155 0
-149 155 0
148 149 -155 0
-45 150 0
-39 144 0
-33 138 0
-27 132 0
-21 126 0
-15 120 0
-3 114 0
-9 114 0
3 9 -114 0
-114 120 0
15 114 -120 0
-120 126 0
21 120 -126 0
-126 132 0
27 126 -132 0
-132 138 0
33 132 -138 0
-138 144 0
39 138 -144 0
-144 150 0
45 144 -150 0
-155 -150 -156 0
156 -164 0
-150 157 0
-155 157 0
150 155 -157 0
-46 151 0
-40 145 0
-34 139 0
-28 133 0
-22 127 0
-16 121 0
-4 115 0
-10 115 0
4 10 -115 0
-115 121 0
16 115 -121 0
-121 127 0
22 121 -127 0
-127 133 0
28 127 -133 0
-133 139 0
34 133 -139 0
-139 145 0
40 139 -145 0
-145 151 0
46 145 -151 0
-157 -151 -158 0
158 -164 0
-151 159 0
-157 159 0
151 157 -159 0
-47 152 0
-41 146 0
-35 140 0
-29 134 0
-23 128 0
-17 122 0
-5 116 0
-11 116 0
5 11 -116 0
-116 122 0
17 116 -122 0
-122 128 0
23 122 -128 0
-128 134 0
29 128 -134 0
-134 140 0
35 134 -140 0
-140 146 0
41 140 -146 0
-146 152 0
47 146 -152 0
-159 -152 -160 0
160 -164 0
-152 161 0
-159 161 0
152 159 -161 0
-48 153 0
-42 147 0
-36 141 0
-30 135 0
-24 129 0
-18 123 0
-6 117 0
-12 117 0
6 12 -117 0
-117 123 0
18 117 -123 0
-123 129 0
24 123 -129 0
-129 135 0
30 129 -135 0
-135 141 0
36 135 -141 0
-141 147 0
42 141 -147 0
-147 153 0
48 147 -153 0
-161 -153 -162 0
162 -164 0
153 161 -163 0
163 -164 0
164 -197 0
-50 -49 -165 0
165 -179 0
-49 166 0
-50 166 0
49 50 -166 0
-166 -51 -167 0
167 -179 0
-51 168 0
-166 168 0
51 166 -168 0
-168 -52 -169 0
169 -179 0
-52 170 0
-168 170 0
52 168 -170 0
-170 -53 -171 0
171 -179 0
-53 172 0
-170 172 0
53 170 -172 0
-172 -54 -173 0
173 -179 0
-54 174 0
-172 174 0
54 172 -174 0
-174 -55 -175 0
175 -179 0
-55 176 0
-174 176 0
55 174 -176 0
-176 -56 -177 0
177 -179 0
56 176 -178 0
178 -179 0
179 -197 0
-1 2 -198 0
198 -228 0
-1 -2 199 0
1 2 199 0
-2 2 199 0
-7 8 -200 0
-199 200 -201 0
201 -228 0
-7 -8 202 0
7 8 202 0
-8 8 202 0
-199 -202 203 0
-13 14 -204 0
-203 204 -205 0
205 -228 0
-13 -14 206 0
13 14 206 0
-14 14 206 0
-203 -206 207 0
-19 20 -208 0
-207 208 -209 0
209 -228 0
-19 -20 210 0
19 20 210 0
-20 20 210 0
-207 -210 211 0
-25 26 -212 0
-211 212 -213 0
213 -228 0
-25 -26 214 0
25 26 214 0
-26 26 214 0
-211 -214 215 0
-31 32 -216 0
-215 216 -217 0
217 -228 0
-31 -32 218 0
31 32 218 0
-32 32 218 0
-215 -218 219 0
-37 38 -220 0
-219 220 -221 0
221 -228 0
-37 -38 222 0
37 38 222 0
-38 38 222 0
-219 -222 223 0
-43 44 -224 0
-223 224 -225 0
225 -228 0
228 -542 0
-2 3 -229 0
229 -259 0
-2 -3 230 0
2 3 230 0
-3 3 230 0
-8 9 -231 0
-230 231 -232 0
232 -259 0
-8 -9 233 0
8 9 233 0
-9 9 233 0
-230 -233 234 0
-14 15 -235 0
-234 235 -236 0
236 -259 0
-14 -15 237 0
14 15 237 0
-15 15 237 0
-234 -237 238 0
-20 21 -239 0
-238 239 -240 0
240 -259 0
-20 -21 241 0
20 21 241 0
-21 21 241 0
-238 -241 242 0
-26 27 -243 0
-242 243 -244 0
244 -259 0
-26 -27 245 0
26 27 245 0
-27 27 245 0
-242 -245 246 0
-32 33 -247 0
-246 247 -248 0
248 -259 0
-32 -33 249 0
32 33 249 0
-33 33 249 0
-246 -249 250 0
-38 39 -251 0
-250 251 -252 0
252 -259 0
-38 -39 253 0
38 39 253 0
-39 39 253 0
-250 -253 254 0
-44 45 -255 0
-254 255 -256 0
256 -259 0
259 -542 0
-3 4 -260 0
260 -290 0
-3 -4 261 0
3 4 261 0
-4 4 261 0
-9 10 -262 0
-261 262 -263 0
263 -290 0
-9 -10 264 0
9 10 264 0
-10 10 264 0
-261 -264 265 0
-15 16 -266 0
-265 266 -267 0
267 -290 0
-15 -16 268 0
15 16 268 0
-16 16 268 0
-265 -268 269 0
-21 22 -270 0
-269 270 -271 0
271 -290 0
-21 -22 272 0
21 22 272 0
-22 22 272 0
-269 -272 273 0
-27 28 -274 0
-273 274 -275 0
275 -290 0
-27 -28 276 0
27 28 276 0
-28 28 276 0
-273 -276 277 0
-33 34 -278 0
-277 278 -279 0
279 -290 0
-33 -34 280 0
33 34 280 0
-34 34 280 0
-277 -280 281 0
-39 40 -282 0
-281 282 -283 0
283 -290 0
-39 -40 284 0
39 40 284 0
-40 40 284 0
-281 -284 285 0
-45 46 -286 0
-285 286 -287 0
287 -290 0
290 -542 0
-4 5 -291 0
291 -321 0
-4 -5 292 0
4 5 292 0
-5 5 292 0
-10 11 -293 0
-292 293 -294 0
294 -321 0
-10 -11 295 0
10 11 295 0
-11 11 295 0
-292 -295 296 0
-16 17 -297 0
-296 297 -298 0
298 -321 0
-16 -17 299 0
16 17 299 0
-17 17 299 0
-296 -299 300 0
-22 23 -301 0
-300 301 -302 0
302 -321 0
-22 -23 303 0
22 23 303 0
-23 23 303 0
-300 -303 304 0
-28 29 -305 0
-304 305 -306 0
306 -321 0
-28 -29 307 0
28 29 307 0
-29 29 307 0
-304 -307 308 0
-34 35 -309 0
-308 309 -310 0
310 -321 0
-34 -35 311 0
34 35 311 0
-35 35 311 0
-308 -311 312 0
-40 41 -313 0
-312 313 -314 0
314 -321 0
-40 -41 315 0
40 41 315 0
-41 41 315 0
-312 -315 316 0
-46 47 -317 0
-316 317 -318 0
318 -321 0
321 -542 0
-5 6 -322 0
322 -352 0
-5 -6 323 0
5 6 323 0
-6 6 323 0
-11 12 -324 0
-323 324 -325 0
325 -352 0
-11 -12 326 0
11 12 326 0
-12 12 326 0
-323 -326 327 0
-17 18 -328 0
-327 328 -329 0
329 -352 0
-17 -18 330 0
17 18 330 0
-18 18 330 0
-327 -330 331 0
-23 24 -332 0
-331 332 -333 0
333 -352 0
-23 -24 334 0
23 24 334 0
-24 24 334 0
-331 -334 335 0
-29 30 -336 0
-335 336 -337 0
337 -352 0
-29 -30 338 0
29 30 338 0
-30 30 338 0
-335 -338 339 0
-35 36 -340 0
-339 340 -341 0
341 -352 0
-35 -36 342 0
35 36 342 0
-36 36 342 0
-339 -342 343 0
-41 42 -344 0
-343 344 -345 0
345 -352 0
-41 -42 346 0
41 42 346 0
-42 42 346 0
-343 -346 347 0
-47 48 -348 0
-347 348 -349 0
349 -352 0
352 -542 0
-49 50 -353 0
353 -379 0
-49 -50 354 0
49 50 354 0
-50 50 354 0
-1 7 -355 0
-354 355 -356 0
356 -379 0
-1 -7 357 0
1 7 357 0
-7 7 357 0
-354 -357 358 0
-2 8 -359 0
-358 359 -360 0
360 -379 0
-2 -8 361 0
2 8 361 0
-8 8 361 0
-358 -361 362 0
-3 9 -363 0
-362 363 -364 0
364 -379 0
-3 -9 365 0
3 9 365 0
-9 9 365 0
-362 -365 366 0
-4 10 -367 0
-366 367 -368 0
368 -379 0
-4 -10 369 0
4 10 369 0
-10 10 369 0
-366 -369 370 0
-5 11 -371 0
-370 371 -372 0
372 -379 0
-5 -11 373 0
5 11 373 0
-11 11 373 0
-370 -373 374 0
-6 12 -375 0
-374 375 -376 0
376 -379 0
379 -542 0
-50 51 -380 0
380 -406 0
-50 -51 381 0
50 51 381 0
-51 51 381 0
-7 13 -382 0
-381 382 -383 0
383 -406 0
-7 -13 384 0
7 13 384 0
-13 13 384 0
-381 -384 385 0
-8 14 -386 0
-385 386 -387 0
387 -406 0
-8 -14 388 0
8 14 388 0
-14 14 388 0
-385 -388 389 0
-9 15 -390 0
-389 390 -391 0
391 -406 0
-9 -15 392 0
9 15 392 0
-15 15 392 0
-389 -392 393 0
-10 16 -394 0
-393 394 -395 0
395 -406 0
-10 -16 396 0
10 16 396 0
-16 16 396 0
-393 -396 397 0
-11 17 -398 0
-397 398 -399 0
399 -406 0
-11 -17 400 0
11 17 400 0
-17 17 400 0
-397 -400 401 0
-12 18 -402 0
-401 402 -403 0
403 -406 0
406 -542 0
-51 52 -407 0
407 -433 0
-51 -52 408 0
51 52 408 0
-52 52 408 0
-13 19 -409 0
-408 409 -410 0
410 -433 0
-13 -19 411 0
13 19 411 0
-19 19 411 0
-408 -411 412 0
-14 20 -413 0
-412 413 -414 0
414 -433 0
-14 -20 415 0
14 20 415 0
-20 20 415 0
-412 -415 416 0
-15 21 -417 0
-416 417 -418 0
418 -433 0
-15 -21 419 0
15 21 419 0
-21 21 419 0
-416 -419 420 0
-16 22 -421 0
-420 421 -422 0
422 -433 0
-16 -22 423 0
16 22 423 0
-22 22 423 0
-420 -423 424 0
-17 23 -425 0
-424 425 -426 0
426 -433 0
-17 -23 427 0
17 23 427 0
-23 23 427 0
-424 -427 428 0
-18 24 -429 0
-428 429 -430 0
430 -433 0
433 -542 0
-52 53 -434 0
434 -460 0
-52 -53 435 0
52 53 435 0
-53 53 435 0
-19 25 -436 0
-435 436 -437 0
437 -460 0
-19 -25 438 0
19 25 438 0
-25 25 438 0
-435 -438 439 0
-20 26 -440 0
-439 440 -441 0
441 -460 0
-20 -26 442 0
20 26 442 0
-26 26 442 0
-439 -442 443 0
-21 27 -444 0
-443 444 -445 0
445 -460 0
-21 -27 446 0
21 27 446 0
-27 27 446 0
-443 -446 447 0
-22 28 -448 0
-447 448 -449 0
449 -460 0
-22 -28 450 0
22 28 450 0
-28 28 450 0
-447 -450 451 0
-23 29 -452 0
-451 452 -453 0
453 -460 0
-23 -29 454 0
23 29 454 0
-29 29 454 0
-451 -454 455 0
-24 30 -456 0
-455 456 -457 0
457 -460 0
460 -542 0
-53 54 -461 0
461 -487 0
-53 -54 462 0
53 54 462 0
-54 54 462 0
-25 31 -463 0
-462 463 -464 0
464 -487 0
-25 -31 465 0
25 31 465 0
-31 31 465 0
-462 -465 466 0
-26 32 -467 0
-466 467 -468 0
468 -487 0
-26 -32 469 0
26 32 469 0
-32 32 469 0
-466 -469 470 0
-27 33 -471 0
-470 471 -472 0
472 -487 0
-27 -33 473 0
27 33 473 0
-33 33 473 0
-470 -473 474 0
-28 34 -475 0
-474 475 -476 0
476 -487 0
-28 -34 477 0
28 34 477 0
-34 34 477 0
-474 -477 478 0
-29 35 -479 0
-478 479 -480 0
480 -487 0
-29 -35 481 0
29 35 481 0
-35 35 481 0
-478 -481 482 0
-30 36 -483 0
-482 483 -484 0
484 -487 0
487 -542 0
-54 55 -488 0
488 -514 0
-54 -55 489 0
54 55 489 0
-55 55 489 0
-31 37 -490 0
-489 490 -491 0
491 -514 0
-31 -37 492 0
31 37 492 0
-37 37 492 0
-489 -492 493 0
-32 38 -494 0
-493 494 -495 0
495 -514 0
-32 -38 496 0
32 38 496 0
-38 38 496 0
-493 -496 497 0
-33 39 -498 0
-497 498 -499 0
499 -514 0
-33 -39 500 0
33 39 500 0
-39 39 500 0
-497 -500 501 0
-34 40 -502 0
-501 502 -503 0
503 -514 0
-34 -40 504 0
34 40 504 0
-40 40 504 0
-501 -504 505 0
-35 41 -506 0
-505 506 -507 0
507 -514 0
-35 -41 508 0
35 41 508 0
-41 41 508 0
-505 -508 509 0
-36 42 -510 0
-509 510 -511 0
511 -514 0
514 -542 0
-55 56 -515 0
515 -541 0
-55 -56 516 0
55 56 516 0
-56 56 516 0
-37 43 -517 0
-516 517 -518 0
518 -541 0
-37 -43 519 0
37 43 519 0
-43 43 519 0
-516 -519 520 0
-38 44 -521 0
-520 521 -522 0
522 -541 0
-38 -44 523 0
38 44 523 0
-44 44 523 0
-520 -523 524 0
-39 45 -525 0
-524 525 -526 0
526 -541 0
-39 -45 527 0
39 45 527 0
-45 45 527 0
-524 -527 528 0
-40 46 -529 0
-528 529 -530 0
530 -541 0
-40 -46 531 0
40 46 531 0
-46 46 531 0
-528 -531 532 0
-41 47 -533 0
-532 533 -534 0
534 -541 0
-41 -47 535 0
41 47 535 0
-47 47 535 0
-532 -535 536 0
-42 48 -537 0
-536 537 -538 0
538 -541 0
541 -542 0
197 0
542 0
